c User generated cnf file
p cnf 6 26
5 -6 6 0 
5 -4 4 0 
3 -5 3 0 
3 1 -3 0 
1 -6 5 0 
5 -2 5 0 
3 -2 5 0 
6 -3 6 0 
4 -3 1 0 
5 4 -3 0 
6 5 -2 0 
1 1 -3 0 
3 -5 1 0 
3 -6 4 0 
3 -4 2 0 
6 5 -5 0 
2 -1 4 0 
3 1 -2 0 
1 2 -2 0 
6 5 -6 0 
5 1 -1 0 
1 -6 6 0 
6 3 -5 0 
3 -3 3 0 
4 5 -2 0 
2 -4 6 0 
